719
679
637
579
746
899
934
838
780
962
802
701
807
762
613
551
858
1008
719
679
637
579
746
899
934
838
780
962
802
701
807
762
613
551
858
1008
719
679
637
579
746
899
934
838
780
962
802
701
807
762
613
551
858
1008
719
679
637
579
746
899
934
838
780
962
802
701
807
762
613
551
858
1008
719
679
637
579
746
899
934
838
780
962
802
701
807
762
613
551
858
1008
719
679
637
579
746
899
934
838
780
962
802
701
807
762
613
551
858
1008
719
679
637
579
746
899
934
838
780
962
802
701
807
762
613
551
858
1008
719
679
637
579
746
899
934
838
780
962
802
701
807
762
613
551
858
1008
719
679
637
579
746
899
934
838
780
962
802
701
807
762
613
551
858
1008
719
679
637
579
746
899
934
838
780
962
802
701
807
762
613
551
858
1008
719
679
637
579
746
899
934
838
780
962
802
701
807
762
613
551
858
1008
719
679
637
579
746
899
934
838
780
962
802
701
807
762
613
551
858
1008
719
679
637
579
746
899
934
838
780
962
802
701
807
762
613
551
858
1008
719
679
637
579
746
899
934
838
780
962
802
701
807
762
613
551
858
1008
719
679
637
579
746
899
934
838
780
962
802
701
807
762
613
551
858
1008
719
679
637
579
746
899
934
838
780
962
802
701
807
762
613
551
858
1008
719
679
637
579
746
899
934
838
780
962
802
701
807
762
613
551
858
1008
719
679
637
579
746
899
934
838
780
962
802
701
807
762
613
551
858
1008
719
679
637
579
746
899
934
838
780
962
802
701
807
762
613
551
858
1008
719
679
637
579
746
899
934
838
780
962
802
701
807
762
613
551
858
1008
719
679
637
579
746
899
934
838
780
962
802
701
807
762
613
551
858
1008
719
679
637
579
746
899
934
838
780
962
802
701
807
762
613
551
858
1008
719
679
637
579
746
899
934
838
780
962
802
701
807
762
613
551
858
1008
719
679
637
579
746
899
934
838
780
962
802
701
807
762
613
551
858
1008
719
679
637
579
746
899
934
838
780
962
802
701
807
762
613
551
858
1008
719
679
637
579
746
899
934
838
780
962
802
701
807
762
613
551
858
1008
719
679
637
579
746
899
934
838
780
962
802
701
807
762
613
551
858
1008
719
679
637
579
746
899
934
838
780
962
802
701
807
762
613
551
858
1008
719
679
637
579
746
899
934
838
780
962
802
701
807
762
613
551
858
1008
719
679
637
579
746
899
934
838
780
962
802
701
807
762
613
551
858
1008
719
679
637
579
746
899
934
838
780
962
802
701
807
762
613
551
858
1008
719
679
637
579
746
899
934
838
780
962
802
701
807
762
613
551
858
1008
719
679
637
579
746
899
934
838
780
962
802
701
807
762
613
551
858
1008
719
679
637
579
746
899
934
838
780
962
802
701
807
762
613
551
858
1008
719
679
637
579
